(set-logic HORN)
(declare-fun state (Int (Array Int Int) (Array Int Int) (Array Int Int) (Array Int Int) Int Int (Array Int Int) (Array Int Int) Int Int Int Int Int Int Int Int Int Int Int Int Int Int Int Int Int Int Int Int Bool Bool Bool Bool Bool (Array Int Int)) Bool)
(assert (forall ((|hhv_ULTIMATE.start_ULTIMATE.startEXIT_0_Int| Int) (|hhv_ULTIMATE.start_ULTIMATE.startEXIT_1_Array_Int_Int| (Array Int Int)) (|hhv_ULTIMATE.start_ULTIMATE.startEXIT_2_Array_Int_Int| (Array Int Int)) (|hhv_ULTIMATE.start_ULTIMATE.startEXIT_3_Array_Int_Array_Int_Int| (Array Int Int)) (|hhv_ULTIMATE.start_ULTIMATE.startEXIT_4_Array_Int_Array_Int_Int| (Array Int Int)) (|hhv_ULTIMATE.start_ULTIMATE.startEXIT_5_Int| Int) (|hhv_ULTIMATE.start_ULTIMATE.startEXIT_6_Int| Int) (|hhv_ULTIMATE.start_ULTIMATE.startEXIT_7_Array_Int_Int| (Array Int Int)) (|hhv_ULTIMATE.start_ULTIMATE.startEXIT_8_Array_Int_Int| (Array Int Int)) (|hhv_ULTIMATE.start_ULTIMATE.startEXIT_9_Int| Int) (|hhv_ULTIMATE.start_ULTIMATE.startEXIT_10_Int| Int) (|hhv_ULTIMATE.start_ULTIMATE.startEXIT_11_Int| Int) (|hhv_ULTIMATE.start_ULTIMATE.startEXIT_12_Int| Int) (|hhv_ULTIMATE.start_ULTIMATE.startEXIT_13_Int| Int) (|hhv_ULTIMATE.start_ULTIMATE.startEXIT_14_Int| Int) (|hhv_ULTIMATE.start_ULTIMATE.startEXIT_15_Int| Int) (|hhv_ULTIMATE.start_ULTIMATE.startEXIT_16_Int| Int) (|hhv_ULTIMATE.start_ULTIMATE.startEXIT_17_Int| Int) (|hhv_ULTIMATE.start_ULTIMATE.startEXIT_18_Int| Int) (|hhv_ULTIMATE.start_ULTIMATE.startEXIT_19_Int| Int) (|hhv_ULTIMATE.start_ULTIMATE.startEXIT_20_Int| Int) (|hhv_ULTIMATE.start_ULTIMATE.startEXIT_21_Int| Int) (|hhv_ULTIMATE.start_ULTIMATE.startEXIT_22_Int| Int) (|hhv_ULTIMATE.start_ULTIMATE.startEXIT_23_Int| Int) (|hhv_ULTIMATE.start_ULTIMATE.startEXIT_24_Int| Int) (|hhv_ULTIMATE.start_ULTIMATE.startEXIT_25_Int| Int) (|hhv_ULTIMATE.start_ULTIMATE.startEXIT_26_Int| Int) (|hhv_ULTIMATE.start_ULTIMATE.startEXIT_27_Int| Int) (|hhv_ULTIMATE.start_ULTIMATE.startEXIT_28_Int| Int) (|hbv_ULTIMATE.start_L2-1_29_Bool| Bool) (|.loc.5| Bool) (|.loc.6| Bool) (|.loc.7| Bool) (|.loc.8| Bool) (|hbv_ULTIMATE.start_L-1_1_Array_Int_Int| (Array Int Int)) (|.x.540| Int) (|.x.538| (Array Int Int)) (|.x.536| Int) (|.x.534| (Array Int Int)) (|.x.530| Int) (|.x.532| (Array Int Int)) (|.x.531| (Array Int Int)) (|hhv_ULTIMATE.start_ULTIMATE.startEXIT_29_Bool| Bool) (|.x.542| Int) (|.x.548| Int) (|.x.549| Int) (|.x.552| Int) (|.x.553| Int) (|.x.554| Int) (|.loc.10| Bool) (|.x.555| Int) (|.x.544| Int) (|.x.556| Int) (|.x.557| Int) (|.loc.12| Bool) (|.loc.9| Bool) (|.loc.11| Bool) (|.x.551| Int) (|.x.550| Int) (|.x.545| Int) (|.x.533| (Array Int Int)) (|.x.546| Int) (|.x.558| Int) (|.x.547| Int) (|.x.541| Int) (|.x.543| Int) (|.x.539| Int) (|.x.535| Int) (|.x.537| (Array Int Int)) (|.xtv.1| (Array Int Int))) (=> (and (and (and (and .loc.5 (not .loc.6)) (not .loc.7)) (not .loc.8)) (and (and (and (and (and (not hbv_ULTIMATE.start_L2-1_29_Bool) (= hhv_ULTIMATE.start_ULTIMATE.startEXIT_1_Array_Int_Int hhv_ULTIMATE.start_ULTIMATE.startEXIT_2_Array_Int_Int)) (= hhv_ULTIMATE.start_ULTIMATE.startEXIT_7_Array_Int_Int hhv_ULTIMATE.start_ULTIMATE.startEXIT_8_Array_Int_Int)) (= hhv_ULTIMATE.start_ULTIMATE.startEXIT_5_Int hhv_ULTIMATE.start_ULTIMATE.startEXIT_6_Int)) (= hhv_ULTIMATE.start_ULTIMATE.startEXIT_3_Array_Int_Array_Int_Int hhv_ULTIMATE.start_ULTIMATE.startEXIT_4_Array_Int_Array_Int_Int)) (= hhv_ULTIMATE.start_ULTIMATE.startEXIT_9_Int hhv_ULTIMATE.start_ULTIMATE.startEXIT_10_Int))) (state |hhv_ULTIMATE.start_ULTIMATE.startEXIT_0_Int| |hhv_ULTIMATE.start_ULTIMATE.startEXIT_1_Array_Int_Int| |hhv_ULTIMATE.start_ULTIMATE.startEXIT_2_Array_Int_Int| |hhv_ULTIMATE.start_ULTIMATE.startEXIT_3_Array_Int_Array_Int_Int| |hhv_ULTIMATE.start_ULTIMATE.startEXIT_4_Array_Int_Array_Int_Int| |hhv_ULTIMATE.start_ULTIMATE.startEXIT_5_Int| |hhv_ULTIMATE.start_ULTIMATE.startEXIT_6_Int| |hhv_ULTIMATE.start_ULTIMATE.startEXIT_7_Array_Int_Int| |hhv_ULTIMATE.start_ULTIMATE.startEXIT_8_Array_Int_Int| |hhv_ULTIMATE.start_ULTIMATE.startEXIT_9_Int| |hhv_ULTIMATE.start_ULTIMATE.startEXIT_10_Int| |hhv_ULTIMATE.start_ULTIMATE.startEXIT_11_Int| |hhv_ULTIMATE.start_ULTIMATE.startEXIT_12_Int| |hhv_ULTIMATE.start_ULTIMATE.startEXIT_13_Int| |hhv_ULTIMATE.start_ULTIMATE.startEXIT_14_Int| |hhv_ULTIMATE.start_ULTIMATE.startEXIT_15_Int| |hhv_ULTIMATE.start_ULTIMATE.startEXIT_16_Int| |hhv_ULTIMATE.start_ULTIMATE.startEXIT_17_Int| |hhv_ULTIMATE.start_ULTIMATE.startEXIT_18_Int| |hhv_ULTIMATE.start_ULTIMATE.startEXIT_19_Int| |hhv_ULTIMATE.start_ULTIMATE.startEXIT_20_Int| |hhv_ULTIMATE.start_ULTIMATE.startEXIT_21_Int| |hhv_ULTIMATE.start_ULTIMATE.startEXIT_22_Int| |hhv_ULTIMATE.start_ULTIMATE.startEXIT_23_Int| |hhv_ULTIMATE.start_ULTIMATE.startEXIT_24_Int| |hhv_ULTIMATE.start_ULTIMATE.startEXIT_25_Int| |hhv_ULTIMATE.start_ULTIMATE.startEXIT_26_Int| |hhv_ULTIMATE.start_ULTIMATE.startEXIT_27_Int| |hhv_ULTIMATE.start_ULTIMATE.startEXIT_28_Int| |hbv_ULTIMATE.start_L2-1_29_Bool| |.loc.5| |.loc.6| |.loc.7| |.loc.8| |hbv_ULTIMATE.start_L-1_1_Array_Int_Int|))))
(assert (forall ((|hhv_ULTIMATE.start_ULTIMATE.startEXIT_0_Int| Int) (|hhv_ULTIMATE.start_ULTIMATE.startEXIT_1_Array_Int_Int| (Array Int Int)) (|hhv_ULTIMATE.start_ULTIMATE.startEXIT_2_Array_Int_Int| (Array Int Int)) (|hhv_ULTIMATE.start_ULTIMATE.startEXIT_3_Array_Int_Array_Int_Int| (Array Int Int)) (|hhv_ULTIMATE.start_ULTIMATE.startEXIT_4_Array_Int_Array_Int_Int| (Array Int Int)) (|hhv_ULTIMATE.start_ULTIMATE.startEXIT_5_Int| Int) (|hhv_ULTIMATE.start_ULTIMATE.startEXIT_6_Int| Int) (|hhv_ULTIMATE.start_ULTIMATE.startEXIT_7_Array_Int_Int| (Array Int Int)) (|hhv_ULTIMATE.start_ULTIMATE.startEXIT_8_Array_Int_Int| (Array Int Int)) (|hhv_ULTIMATE.start_ULTIMATE.startEXIT_9_Int| Int) (|hhv_ULTIMATE.start_ULTIMATE.startEXIT_10_Int| Int) (|hhv_ULTIMATE.start_ULTIMATE.startEXIT_11_Int| Int) (|hhv_ULTIMATE.start_ULTIMATE.startEXIT_12_Int| Int) (|hhv_ULTIMATE.start_ULTIMATE.startEXIT_13_Int| Int) (|hhv_ULTIMATE.start_ULTIMATE.startEXIT_14_Int| Int) (|hhv_ULTIMATE.start_ULTIMATE.startEXIT_15_Int| Int) (|hhv_ULTIMATE.start_ULTIMATE.startEXIT_16_Int| Int) (|hhv_ULTIMATE.start_ULTIMATE.startEXIT_17_Int| Int) (|hhv_ULTIMATE.start_ULTIMATE.startEXIT_18_Int| Int) (|hhv_ULTIMATE.start_ULTIMATE.startEXIT_19_Int| Int) (|hhv_ULTIMATE.start_ULTIMATE.startEXIT_20_Int| Int) (|hhv_ULTIMATE.start_ULTIMATE.startEXIT_21_Int| Int) (|hhv_ULTIMATE.start_ULTIMATE.startEXIT_22_Int| Int) (|hhv_ULTIMATE.start_ULTIMATE.startEXIT_23_Int| Int) (|hhv_ULTIMATE.start_ULTIMATE.startEXIT_24_Int| Int) (|hhv_ULTIMATE.start_ULTIMATE.startEXIT_25_Int| Int) (|hhv_ULTIMATE.start_ULTIMATE.startEXIT_26_Int| Int) (|hhv_ULTIMATE.start_ULTIMATE.startEXIT_27_Int| Int) (|hhv_ULTIMATE.start_ULTIMATE.startEXIT_28_Int| Int) (|hbv_ULTIMATE.start_L2-1_29_Bool| Bool) (|.loc.5| Bool) (|.loc.6| Bool) (|.loc.7| Bool) (|.loc.8| Bool) (|hbv_ULTIMATE.start_L-1_1_Array_Int_Int| (Array Int Int)) (|.x.540| Int) (|.x.538| (Array Int Int)) (|.x.536| Int) (|.x.534| (Array Int Int)) (|.x.530| Int) (|.x.532| (Array Int Int)) (|.x.531| (Array Int Int)) (|hhv_ULTIMATE.start_ULTIMATE.startEXIT_29_Bool| Bool) (|.x.542| Int) (|.x.548| Int) (|.x.549| Int) (|.x.552| Int) (|.x.553| Int) (|.x.554| Int) (|.loc.10| Bool) (|.x.555| Int) (|.x.544| Int) (|.x.556| Int) (|.x.557| Int) (|.loc.12| Bool) (|.loc.9| Bool) (|.loc.11| Bool) (|.x.551| Int) (|.x.550| Int) (|.x.545| Int) (|.x.533| (Array Int Int)) (|.x.546| Int) (|.x.558| Int) (|.x.547| Int) (|.x.541| Int) (|.x.543| Int) (|.x.539| Int) (|.x.535| Int) (|.x.537| (Array Int Int)) (|.xtv.1| (Array Int Int))) (=> (and (state |hhv_ULTIMATE.start_ULTIMATE.startEXIT_0_Int| |hhv_ULTIMATE.start_ULTIMATE.startEXIT_1_Array_Int_Int| |hhv_ULTIMATE.start_ULTIMATE.startEXIT_2_Array_Int_Int| |hhv_ULTIMATE.start_ULTIMATE.startEXIT_3_Array_Int_Array_Int_Int| |hhv_ULTIMATE.start_ULTIMATE.startEXIT_4_Array_Int_Array_Int_Int| |hhv_ULTIMATE.start_ULTIMATE.startEXIT_5_Int| |hhv_ULTIMATE.start_ULTIMATE.startEXIT_6_Int| |hhv_ULTIMATE.start_ULTIMATE.startEXIT_7_Array_Int_Int| |hhv_ULTIMATE.start_ULTIMATE.startEXIT_8_Array_Int_Int| |hhv_ULTIMATE.start_ULTIMATE.startEXIT_9_Int| |hhv_ULTIMATE.start_ULTIMATE.startEXIT_10_Int| |hhv_ULTIMATE.start_ULTIMATE.startEXIT_11_Int| |hhv_ULTIMATE.start_ULTIMATE.startEXIT_12_Int| |hhv_ULTIMATE.start_ULTIMATE.startEXIT_13_Int| |hhv_ULTIMATE.start_ULTIMATE.startEXIT_14_Int| |hhv_ULTIMATE.start_ULTIMATE.startEXIT_15_Int| |hhv_ULTIMATE.start_ULTIMATE.startEXIT_16_Int| |hhv_ULTIMATE.start_ULTIMATE.startEXIT_17_Int| |hhv_ULTIMATE.start_ULTIMATE.startEXIT_18_Int| |hhv_ULTIMATE.start_ULTIMATE.startEXIT_19_Int| |hhv_ULTIMATE.start_ULTIMATE.startEXIT_20_Int| |hhv_ULTIMATE.start_ULTIMATE.startEXIT_21_Int| |hhv_ULTIMATE.start_ULTIMATE.startEXIT_22_Int| |hhv_ULTIMATE.start_ULTIMATE.startEXIT_23_Int| |hhv_ULTIMATE.start_ULTIMATE.startEXIT_24_Int| |hhv_ULTIMATE.start_ULTIMATE.startEXIT_25_Int| |hhv_ULTIMATE.start_ULTIMATE.startEXIT_26_Int| |hhv_ULTIMATE.start_ULTIMATE.startEXIT_27_Int| |hhv_ULTIMATE.start_ULTIMATE.startEXIT_28_Int| |hbv_ULTIMATE.start_L2-1_29_Bool| |.loc.5| |.loc.6| |.loc.7| |.loc.8| |hbv_ULTIMATE.start_L-1_1_Array_Int_Int|) (let ((.def_45 (not .loc.6))) (let ((.def_47 (not .loc.7))) (let ((.def_49 (not .loc.8))) (let ((.def_81 (= hhv_ULTIMATE.start_ULTIMATE.startEXIT_1_Array_Int_Int .x.531))) (let ((.def_85 (= hhv_ULTIMATE.start_ULTIMATE.startEXIT_12_Int .x.542))) (let ((.def_88 (= hhv_ULTIMATE.start_ULTIMATE.startEXIT_18_Int .x.548))) (let ((.def_91 (= hhv_ULTIMATE.start_ULTIMATE.startEXIT_19_Int .x.549))) (let ((.def_94 (= hhv_ULTIMATE.start_ULTIMATE.startEXIT_22_Int .x.552))) (let ((.def_97 (= hhv_ULTIMATE.start_ULTIMATE.startEXIT_23_Int .x.553))) (let ((.def_100 (= hhv_ULTIMATE.start_ULTIMATE.startEXIT_24_Int .x.554))) (let ((.def_102 (not .loc.5))) (let ((.def_114 (= hbv_ULTIMATE.start_L2-1_29_Bool hhv_ULTIMATE.start_ULTIMATE.startEXIT_29_Bool))) (let ((.def_123 (= hhv_ULTIMATE.start_ULTIMATE.startEXIT_14_Int 0))) (let ((.def_125 (and .def_81 .def_85))) (let ((.def_130 (and .def_100 (and .def_97 (and .def_94 (and .def_91 (and .def_88 .def_125))))))) (let ((.def_135 (not .loc.10))) (let ((.def_141 (= hhv_ULTIMATE.start_ULTIMATE.startEXIT_25_Int .x.555))) (let ((.def_143 (= hhv_ULTIMATE.start_ULTIMATE.startEXIT_14_Int .x.544))) (let ((.def_146 (= hhv_ULTIMATE.start_ULTIMATE.startEXIT_26_Int .x.556))) (let ((.def_149 (= hhv_ULTIMATE.start_ULTIMATE.startEXIT_27_Int .x.557))) (let ((.def_154 (not .loc.9))) (let ((.def_157 (not .loc.11))) (let ((.def_163 (select hhv_ULTIMATE.start_ULTIMATE.startEXIT_3_Array_Int_Array_Int_Int hhv_ULTIMATE.start_ULTIMATE.startEXIT_23_Int))) (let ((.def_167 (select hhv_ULTIMATE.start_ULTIMATE.startEXIT_3_Array_Int_Array_Int_Int hhv_ULTIMATE.start_ULTIMATE.startEXIT_19_Int))) (let ((.def_172 (<= 100000 hhv_ULTIMATE.start_ULTIMATE.startEXIT_20_Int))) (let ((.def_192 (not .loc.12))) (let ((.def_197 (= hhv_ULTIMATE.start_ULTIMATE.startEXIT_21_Int .x.551))) (let ((.def_199 (= hhv_ULTIMATE.start_ULTIMATE.startEXIT_20_Int .x.550))) (let ((.def_207 (and .def_125 .def_143))) (let ((.def_209 (and .def_91 (and .def_88 .def_207)))) (let ((.def_245 (and hbv_ULTIMATE.start_L2-1_29_Bool .def_81))) (let ((.def_257 (and .def_149 (and .def_146 (and .def_141 (and .def_100 (and .def_97 (and .def_94 (and .def_197 (and .def_199 (and .def_91 (and .def_88 (and .def_143 (and .def_85 .def_245)))))))))))))) (let ((.def_276 (and .def_149 (and .def_146 (and .def_141 (and .def_100 (and .def_97 (and .def_94 (and .def_197 (and .def_199 .def_209)))))))))) (let ((.def_298 (<= 100000 hhv_ULTIMATE.start_ULTIMATE.startEXIT_16_Int))) (let ((.def_302 (and .def_45 (and .def_102 (and .loc.7 .def_276))))) (let ((.def_312 (= hhv_ULTIMATE.start_ULTIMATE.startEXIT_15_Int .x.545))) (let ((.def_314 (= hhv_ULTIMATE.start_ULTIMATE.startEXIT_3_Array_Int_Array_Int_Int .x.533))) (let ((.def_317 (= hhv_ULTIMATE.start_ULTIMATE.startEXIT_16_Int .x.546))) (let ((.def_320 (= hhv_ULTIMATE.start_ULTIMATE.startEXIT_28_Int .x.558))) (let ((.def_352 (and .def_312 (and .def_143 (and .def_85 (and .def_81 .def_314)))))) (let ((.def_364 (and .def_320 (and .def_149 (and .def_146 (and .def_141 (and .def_100 (and .def_97 (and .def_94 (and .def_197 (and .def_199 (and .def_91 (and .def_88 (and .def_317 .def_352)))))))))))))) (let ((.def_391 (and .def_320 (and .def_149 (and .def_146 (and .def_141 (and .def_100 (and .def_97 (and .def_94 (and .def_197 (and .def_199 (and .def_91 (and .def_88 (and .def_317 (and .def_312 (and .def_143 (and .def_85 (and .def_245 .def_314)))))))))))))))))) (let ((.def_436 (<= 100000 hhv_ULTIMATE.start_ULTIMATE.startEXIT_13_Int))) (let ((.def_529 (store hbv_ULTIMATE.start_L-1_1_Array_Int_Int .x.549 1))) (and (and (= hhv_ULTIMATE.start_ULTIMATE.startEXIT_10_Int .x.540) (and (= hhv_ULTIMATE.start_ULTIMATE.startEXIT_8_Array_Int_Int .x.538) (and (= hhv_ULTIMATE.start_ULTIMATE.startEXIT_6_Int .x.536) (and (= hhv_ULTIMATE.start_ULTIMATE.startEXIT_4_Array_Int_Array_Int_Int .x.534) (and (= hhv_ULTIMATE.start_ULTIMATE.startEXIT_0_Int .x.530) (= hhv_ULTIMATE.start_ULTIMATE.startEXIT_2_Array_Int_Int .x.532)))))) (or (and (or (and (or (or (or (or (or (or (and (or (or (or (or (or (or (and (or (and (or (and (or (and (and (and (and (and (and (and (and .def_81 hhv_ULTIMATE.start_ULTIMATE.startEXIT_29_Bool) .def_85) .def_88) .def_91) .def_94) .def_97) .def_100) .def_102) (and (or hbv_ULTIMATE.start_L2-1_29_Bool (and (= .x.531 (store (store hhv_ULTIMATE.start_ULTIMATE.startEXIT_1_Array_Int_Int hhv_ULTIMATE.start_ULTIMATE.startEXIT_19_Int 0) hhv_ULTIMATE.start_ULTIMATE.startEXIT_23_Int 0)) (= .x.554 0))) (and (and .loc.5 (or hhv_ULTIMATE.start_ULTIMATE.startEXIT_29_Bool (= .x.548 .x.554))) .def_114))) (and (and .def_47 (and .loc.8 .def_45)) .loc.10)) (and (or hbv_ULTIMATE.start_L2-1_29_Bool .def_123) (and .def_49 (and (and .def_114 (and .loc.7 (and .loc.6 (and .loc.5 .def_130)))) .def_135)))) (and (and (and (and (and (and .def_141 .def_143) .def_146) .def_149) .loc.12) .def_154) .def_157)) (and (or hbv_ULTIMATE.start_L2-1_29_Bool (and (= .x.556 (select .def_163 (+ hhv_ULTIMATE.start_ULTIMATE.startEXIT_12_Int (* 4 hhv_ULTIMATE.start_ULTIMATE.startEXIT_20_Int)))) (and (= .x.557 (select .def_167 (+ (* 4 hhv_ULTIMATE.start_ULTIMATE.startEXIT_20_Int) hhv_ULTIMATE.start_ULTIMATE.startEXIT_22_Int))) (and (not .def_172) (and (= .x.555 .x.544) (= .x.555 (ite (= .x.556 .x.557) 1 0))))))) (and (and .def_49 (and .def_114 (and .loc.11 (and .loc.10 (and .loc.9 (and .def_102 (and .loc.7 (and .loc.6 .def_130)))))))) .def_192))) (and .def_197 .def_199)) (and (or hhv_ULTIMATE.start_ULTIMATE.startEXIT_29_Bool (= (+ hhv_ULTIMATE.start_ULTIMATE.startEXIT_20_Int (* (- 1) .x.550)) (- 1))) (and .def_192 (and .def_49 (and .def_114 (and .def_154 (and .loc.11 (and .loc.10 (and .def_47 (and .def_45 (and .def_102 (and .def_141 (and .def_100 (and .def_97 (and .def_94 .def_209))))))))))))))) (and (or hbv_ULTIMATE.start_L2-1_29_Bool (= .x.550 0)) (and .def_192 (and .def_49 (and .def_114 (and .def_154 (and .loc.11 (and .loc.10 (and .def_45 (and .loc.7 (and .loc.5 (and .def_149 (and .def_146 (and .def_141 (and .def_100 (and .def_97 (and .def_94 (and .def_197 .def_209)))))))))))))))))) (and .def_49 (and .def_135 (and .def_114 (and .def_157 (and .loc.12 (and .loc.9 (and .def_102 (and .loc.7 (and .loc.6 .def_257)))))))))) (and (or hbv_ULTIMATE.start_L2-1_29_Bool .def_172) (and .def_49 (and .def_135 (and .def_114 (and .def_157 (and .loc.12 (and .loc.9 (and .def_102 (and .loc.7 (and .loc.6 .def_276))))))))))) (and .def_192 (and .def_49 (and .def_135 (and .def_114 (and .loc.11 (and .loc.9 (and .def_45 (and .def_102 (and .loc.7 .def_257)))))))))) (and (or hbv_ULTIMATE.start_L2-1_29_Bool .def_298) (and .def_192 (and .def_49 (and .def_135 (and .def_114 (and .loc.11 (and .loc.9 .def_302)))))))) (and (and (and .def_312 .def_314) .def_317) .def_320)) (and (or hbv_ULTIMATE.start_L2-1_29_Bool (and (= .x.533 (store hhv_ULTIMATE.start_ULTIMATE.startEXIT_3_Array_Int_Array_Int_Int hhv_ULTIMATE.start_ULTIMATE.startEXIT_23_Int (store .def_163 (+ hhv_ULTIMATE.start_ULTIMATE.startEXIT_12_Int (* 4 hhv_ULTIMATE.start_ULTIMATE.startEXIT_16_Int)) (select .def_167 (+ (* 4 hhv_ULTIMATE.start_ULTIMATE.startEXIT_16_Int) hhv_ULTIMATE.start_ULTIMATE.startEXIT_22_Int))))) (not .def_298))) (and (or hhv_ULTIMATE.start_ULTIMATE.startEXIT_29_Bool (= (+ hhv_ULTIMATE.start_ULTIMATE.startEXIT_16_Int (* (- 1) .x.546)) (- 1))) (and .def_192 (and .def_49 (and .def_135 (and .def_114 (and .def_154 (and .loc.11 .def_302))))))))) (and (or hbv_ULTIMATE.start_L2-1_29_Bool (not .def_123)) (and .def_192 (and .def_49 (and .def_135 (and .def_114 (and .def_157 (and .def_154 (and .loc.7 (and .loc.6 (and .loc.5 .def_364))))))))))) (and .def_192 (and .def_135 (and .def_114 (and .def_157 (and .def_154 (and .def_47 (and .def_45 (and .def_102 (and .loc.8 .def_391)))))))))) (and (or hbv_ULTIMATE.start_L2-1_29_Bool (= .x.546 0)) (and .def_192 (and .def_49 (and .def_135 (and .def_114 (and .def_154 (and .loc.11 (and .def_47 (and .loc.6 (and .loc.5 (and .def_320 (and .def_149 (and .def_146 (and .def_141 (and .def_100 (and .def_97 (and .def_94 (and .def_197 (and .def_199 (and .def_91 (and .def_88 .def_352)))))))))))))))))))))) (and .def_192 (and .def_49 (and .def_114 (and .def_157 (and .loc.10 (and .loc.9 (and .def_47 (and .def_102 (and .loc.6 .def_391)))))))))) (and (or hbv_ULTIMATE.start_L2-1_29_Bool .def_436) (and .def_192 (and .def_49 (and .def_114 (and .def_157 (and .loc.10 (and .loc.9 (and .def_47 (and .def_102 (and .loc.6 .def_364))))))))))) (and (= hhv_ULTIMATE.start_ULTIMATE.startEXIT_17_Int .x.547) (and (= hhv_ULTIMATE.start_ULTIMATE.startEXIT_11_Int .x.541) (= hhv_ULTIMATE.start_ULTIMATE.startEXIT_13_Int .x.543)))) (and (or hbv_ULTIMATE.start_L2-1_29_Bool (and (and (and (= .x.533 (store hhv_ULTIMATE.start_ULTIMATE.startEXIT_3_Array_Int_Array_Int_Int hhv_ULTIMATE.start_ULTIMATE.startEXIT_19_Int (store .def_167 (+ (* 4 hhv_ULTIMATE.start_ULTIMATE.startEXIT_13_Int) hhv_ULTIMATE.start_ULTIMATE.startEXIT_22_Int) hhv_ULTIMATE.start_ULTIMATE.startEXIT_11_Int))) (not .def_436)) (<= hhv_ULTIMATE.start_ULTIMATE.startEXIT_11_Int 2147483647)) (<= (- 2147483648) hhv_ULTIMATE.start_ULTIMATE.startEXIT_11_Int))) (and (or hhv_ULTIMATE.start_ULTIMATE.startEXIT_29_Bool (= (+ hhv_ULTIMATE.start_ULTIMATE.startEXIT_13_Int (* (- 1) .x.543)) (- 1))) (and .def_192 (and .def_49 (and .def_114 (and .def_157 (and .def_154 (and .loc.10 (and .def_47 (and .def_102 (and .loc.6 (and .def_320 (and .def_149 (and .def_146 (and .def_141 (and .def_100 (and .def_97 (and .def_94 (and .def_197 (and .def_199 (and .def_91 (and .def_88 (and .def_317 (and .def_207 .def_312))))))))))))))))))))))))) (and (= hhv_ULTIMATE.start_ULTIMATE.startEXIT_9_Int .x.539) (and (= hhv_ULTIMATE.start_ULTIMATE.startEXIT_5_Int .x.535) (= hhv_ULTIMATE.start_ULTIMATE.startEXIT_7_Array_Int_Int .x.537)))) (and (or hbv_ULTIMATE.start_L2-1_29_Bool (and (and (= .x.535 0) (= .x.539 0)) (= hbv_ULTIMATE.start_L-1_1_Array_Int_Int (store hhv_ULTIMATE.start_ULTIMATE.startEXIT_1_Array_Int_Int 0 0)))) (and (or hhv_ULTIMATE.start_ULTIMATE.startEXIT_29_Bool (and (and (and (and (and (and (and (and (not (<= .x.530 .x.549)) (and (not (= .x.553 0)) (and (= .x.552 0) (= (select hbv_ULTIMATE.start_L-1_1_Array_Int_Int .x.549) 0)))) (= (select .def_529 .x.553) 0)) (= .x.542 0)) (not (= .x.549 0))) (= .x.537 (store (store hhv_ULTIMATE.start_ULTIMATE.startEXIT_7_Array_Int_Int .x.549 400000) .x.553 400000))) (not (<= .x.530 .x.553))) (= .x.531 (store .def_529 .x.553 1))) (= .x.543 0))) (and .def_192 (and .def_49 (and .def_114 (and .def_157 (and .def_154 (and .loc.10 (and .def_47 (and .def_45 (and .loc.5 (and .def_141 (and .def_88 (and .def_143 .def_314))))))))))))))))))))))))))))))))))))))))))))))))))))))))))))) (state |.x.530| |.x.531| |.x.532| |.x.533| |.x.534| |.x.535| |.x.536| |.x.537| |.x.538| |.x.539| |.x.540| |.x.541| |.x.542| |.x.543| |.x.544| |.x.545| |.x.546| |.x.547| |.x.548| |.x.549| |.x.550| |.x.551| |.x.552| |.x.553| |.x.554| |.x.555| |.x.556| |.x.557| |.x.558| |hhv_ULTIMATE.start_ULTIMATE.startEXIT_29_Bool| |.loc.9| |.loc.10| |.loc.11| |.loc.12| |.xtv.1|))))
(assert (forall ((|hhv_ULTIMATE.start_ULTIMATE.startEXIT_0_Int| Int) (|hhv_ULTIMATE.start_ULTIMATE.startEXIT_1_Array_Int_Int| (Array Int Int)) (|hhv_ULTIMATE.start_ULTIMATE.startEXIT_2_Array_Int_Int| (Array Int Int)) (|hhv_ULTIMATE.start_ULTIMATE.startEXIT_3_Array_Int_Array_Int_Int| (Array Int Int)) (|hhv_ULTIMATE.start_ULTIMATE.startEXIT_4_Array_Int_Array_Int_Int| (Array Int Int)) (|hhv_ULTIMATE.start_ULTIMATE.startEXIT_5_Int| Int) (|hhv_ULTIMATE.start_ULTIMATE.startEXIT_6_Int| Int) (|hhv_ULTIMATE.start_ULTIMATE.startEXIT_7_Array_Int_Int| (Array Int Int)) (|hhv_ULTIMATE.start_ULTIMATE.startEXIT_8_Array_Int_Int| (Array Int Int)) (|hhv_ULTIMATE.start_ULTIMATE.startEXIT_9_Int| Int) (|hhv_ULTIMATE.start_ULTIMATE.startEXIT_10_Int| Int) (|hhv_ULTIMATE.start_ULTIMATE.startEXIT_11_Int| Int) (|hhv_ULTIMATE.start_ULTIMATE.startEXIT_12_Int| Int) (|hhv_ULTIMATE.start_ULTIMATE.startEXIT_13_Int| Int) (|hhv_ULTIMATE.start_ULTIMATE.startEXIT_14_Int| Int) (|hhv_ULTIMATE.start_ULTIMATE.startEXIT_15_Int| Int) (|hhv_ULTIMATE.start_ULTIMATE.startEXIT_16_Int| Int) (|hhv_ULTIMATE.start_ULTIMATE.startEXIT_17_Int| Int) (|hhv_ULTIMATE.start_ULTIMATE.startEXIT_18_Int| Int) (|hhv_ULTIMATE.start_ULTIMATE.startEXIT_19_Int| Int) (|hhv_ULTIMATE.start_ULTIMATE.startEXIT_20_Int| Int) (|hhv_ULTIMATE.start_ULTIMATE.startEXIT_21_Int| Int) (|hhv_ULTIMATE.start_ULTIMATE.startEXIT_22_Int| Int) (|hhv_ULTIMATE.start_ULTIMATE.startEXIT_23_Int| Int) (|hhv_ULTIMATE.start_ULTIMATE.startEXIT_24_Int| Int) (|hhv_ULTIMATE.start_ULTIMATE.startEXIT_25_Int| Int) (|hhv_ULTIMATE.start_ULTIMATE.startEXIT_26_Int| Int) (|hhv_ULTIMATE.start_ULTIMATE.startEXIT_27_Int| Int) (|hhv_ULTIMATE.start_ULTIMATE.startEXIT_28_Int| Int) (|hbv_ULTIMATE.start_L2-1_29_Bool| Bool) (|.loc.5| Bool) (|.loc.6| Bool) (|.loc.7| Bool) (|.loc.8| Bool) (|hbv_ULTIMATE.start_L-1_1_Array_Int_Int| (Array Int Int)) (|.x.540| Int) (|.x.538| (Array Int Int)) (|.x.536| Int) (|.x.534| (Array Int Int)) (|.x.530| Int) (|.x.532| (Array Int Int)) (|.x.531| (Array Int Int)) (|hhv_ULTIMATE.start_ULTIMATE.startEXIT_29_Bool| Bool) (|.x.542| Int) (|.x.548| Int) (|.x.549| Int) (|.x.552| Int) (|.x.553| Int) (|.x.554| Int) (|.loc.10| Bool) (|.x.555| Int) (|.x.544| Int) (|.x.556| Int) (|.x.557| Int) (|.loc.12| Bool) (|.loc.9| Bool) (|.loc.11| Bool) (|.x.551| Int) (|.x.550| Int) (|.x.545| Int) (|.x.533| (Array Int Int)) (|.x.546| Int) (|.x.558| Int) (|.x.547| Int) (|.x.541| Int) (|.x.543| Int) (|.x.539| Int) (|.x.535| Int) (|.x.537| (Array Int Int)) (|.xtv.1| (Array Int Int))) (=> (state |hhv_ULTIMATE.start_ULTIMATE.startEXIT_0_Int| |hhv_ULTIMATE.start_ULTIMATE.startEXIT_1_Array_Int_Int| |hhv_ULTIMATE.start_ULTIMATE.startEXIT_2_Array_Int_Int| |hhv_ULTIMATE.start_ULTIMATE.startEXIT_3_Array_Int_Array_Int_Int| |hhv_ULTIMATE.start_ULTIMATE.startEXIT_4_Array_Int_Array_Int_Int| |hhv_ULTIMATE.start_ULTIMATE.startEXIT_5_Int| |hhv_ULTIMATE.start_ULTIMATE.startEXIT_6_Int| |hhv_ULTIMATE.start_ULTIMATE.startEXIT_7_Array_Int_Int| |hhv_ULTIMATE.start_ULTIMATE.startEXIT_8_Array_Int_Int| |hhv_ULTIMATE.start_ULTIMATE.startEXIT_9_Int| |hhv_ULTIMATE.start_ULTIMATE.startEXIT_10_Int| |hhv_ULTIMATE.start_ULTIMATE.startEXIT_11_Int| |hhv_ULTIMATE.start_ULTIMATE.startEXIT_12_Int| |hhv_ULTIMATE.start_ULTIMATE.startEXIT_13_Int| |hhv_ULTIMATE.start_ULTIMATE.startEXIT_14_Int| |hhv_ULTIMATE.start_ULTIMATE.startEXIT_15_Int| |hhv_ULTIMATE.start_ULTIMATE.startEXIT_16_Int| |hhv_ULTIMATE.start_ULTIMATE.startEXIT_17_Int| |hhv_ULTIMATE.start_ULTIMATE.startEXIT_18_Int| |hhv_ULTIMATE.start_ULTIMATE.startEXIT_19_Int| |hhv_ULTIMATE.start_ULTIMATE.startEXIT_20_Int| |hhv_ULTIMATE.start_ULTIMATE.startEXIT_21_Int| |hhv_ULTIMATE.start_ULTIMATE.startEXIT_22_Int| |hhv_ULTIMATE.start_ULTIMATE.startEXIT_23_Int| |hhv_ULTIMATE.start_ULTIMATE.startEXIT_24_Int| |hhv_ULTIMATE.start_ULTIMATE.startEXIT_25_Int| |hhv_ULTIMATE.start_ULTIMATE.startEXIT_26_Int| |hhv_ULTIMATE.start_ULTIMATE.startEXIT_27_Int| |hhv_ULTIMATE.start_ULTIMATE.startEXIT_28_Int| |hbv_ULTIMATE.start_L2-1_29_Bool| |.loc.5| |.loc.6| |.loc.7| |.loc.8| |hbv_ULTIMATE.start_L-1_1_Array_Int_Int|) (not (and hbv_ULTIMATE.start_L2-1_29_Bool (and .loc.8 (and (not .loc.7) (and .loc.6 (not .loc.5)))))))))
(check-sat)
